
  22    4
  10   10   10   10

   0   0   0   0   0   5 2 3 4 5 7 
   3  10  10  10  10   4 13 11 9 8 
   7  10  10  10  10   6 21 19 15 14 11 9 
  10  10  10  10  10   2 13 6 
  10  10  10  10  10   5 19 15 14 11 9 
   6  10  10  10  10   3 20 10 8 
   5  10  10  10  10   3 20 13 8 
   8  10  10  10  10   4 21 19 15 12 
  10  10  10  10  10   2 20 10 
   2  10  10  10  10   2 16 12 
   4  10  10  10  10   3 20 18 16 
   5  10  10  10  10   2 18 17 
  10  10  10  10  10   2 19 17 
   4  10  10  10  10   2 17 16 
   9  10  10  10  10   1 16 
   7  10  10  10  10   1 22
   5  10  10  10  10   1 22
   6  10  10  10  10   1 22
   3  10  10  10  10   1 22
   6  10  10  10  10   1 22
   8  10  10  10  10   1 22
   0   0   0   0   0   0 
